0 1 0.2091570117388284
0 6 0.03318073603352234
0 10 0.028703255143305073
1 5 0.12333609533637313
1 6 0.7738646906574222
1 15 0.02000548547607217
2 6 0.17705466823661264
2 9 0.060234396971668214
2 12 0.8430647211486562
2 17 0.11345541465362508
3 4 0.48513523293794847
3 11 0.9526322318070767
3 16 0.7809736087212572
3 18 0.5819947814400332
4 9 0.7754590112610301
4 10 0.15090133542128503
4 12 0.5778277486502954
4 13 0.3423693639747224
4 16 0.8006068898796751
6 12 0.8767413768954426
6 17 0.08394003558169061
6 19 0.7591216420434006
7 8 0.4301231456503548
7 10 0.9950234057259892
8 10 0.1593076563621899
8 17 0.015577924210464889
8 19 0.36389831010212004
10 11 0.666609113452825
10 18 0.927322794798832
10 19 0.006341347060562108
11 13 0.3726299027536424
11 15 0.1495178838441822
11 16 0.6862382128784607
12 15 0.44615147444521397
12 17 0.9996028520812928
12 18 0.32063794800237777
13 18 0.9690725377710447
13 19 0.6132580130241302
14 18 0.11616429421034291
15 17 0.3567960315702853
16 18 0.6944054470437628
17 18 0.9745710192356205
